c clasp version 2.1.4
c Reading from ...arks/26_Nodes/PBencd_EuclideanCost.opb
c Solving...
o 856
o 851
o 818
o 808
o 785
o 726
o 705
o 704
o 703
o 671
o 662
o 658
o 638
o 637
o 630
o 627
o 625
o 616
o 600
o 597
o 592
o 589
o 586
o 585
o 565
o 556
o 554
o 551
o 549
o 546
o 539
o 537
o 526
o 524
o 523
o 515
o 513
o 509
o 508
o 502
o 501
o 482
o 479
o 477
o 472
o 463
o 451
o 449
o 438
o 437
o 427
o 421
o 415
o 413
o 409
o 408
o 405
o 402
o 389
o 387
o 380
o 379
o 366
o 364
o 362
o 361
o 356
o 355
o 345
o 343
